60 915 5
0 1 1
0 2 1
0 3 1
0 5 1
0 8 1
0 9 1
0 11 1
0 12 1
0 13 1
0 14 1
0 16 1
0 17 1
0 18 1
0 20 1
0 22 1
0 23 1
0 24 1
0 27 1
0 28 1
0 29 1
0 36 1
0 40 1
0 42 1
0 43 1
0 44 1
0 46 1
0 47 1
0 48 1
0 50 1
0 51 1
0 52 1
0 55 1
0 57 1
0 58 1
1 2 1
1 3 1
1 4 1
1 5 1
1 10 1
1 13 1
1 14 1
1 15 1
1 16 1
1 18 1
1 21 1
1 22 1
1 24 1
1 29 1
1 30 1
1 31 1
1 32 1
1 37 1
1 39 1
1 45 1
1 46 1
1 47 1
1 49 1
1 50 1
1 53 1
1 54 1
1 55 1
1 57 1
1 58 1
1 59 1
2 3 1
2 5 1
2 7 1
2 8 1
2 9 1
2 13 1
2 16 1
2 18 1
2 20 1
2 24 1
2 25 1
2 28 1
2 31 1
2 33 1
2 34 1
2 36 1
2 37 1
2 39 1
2 41 1
2 43 1
2 44 1
2 45 1
2 46 1
2 48 1
2 49 1
2 51 1
2 53 1
2 55 1
2 56 1
2 58 1
3 4 1
3 5 1
3 6 1
3 8 1
3 9 1
3 10 1
3 13 1
3 14 1
3 16 1
3 19 1
3 21 1
3 24 1
3 25 1
3 32 1
3 34 1
3 36 1
3 39 1
3 40 1
3 43 1
3 44 1
3 45 1
3 47 1
3 49 1
3 53 1
3 54 1
3 55 1
3 56 1
3 58 1
3 59 1
4 5 1
4 7 1
4 8 1
4 9 1
4 10 1
4 12 1
4 13 1
4 17 1
4 18 1
4 19 1
4 27 1
4 28 1
4 29 1
4 30 1
4 34 1
4 35 1
4 38 1
4 40 1
4 44 1
4 45 1
4 46 1
4 47 1
4 48 1
4 49 1
4 50 1
4 54 1
4 56 1
4 57 1
4 59 1
5 6 1
5 7 1
5 8 1
5 9 1
5 10 1
5 11 1
5 13 1
5 14 1
5 15 1
5 20 1
5 21 1
5 22 1
5 23 1
5 25 1
5 26 1
5 27 1
5 29 1
5 31 1
5 32 1
5 33 1
5 35 1
5 36 1
5 37 1
5 38 1
5 39 1
5 42 1
5 43 1
5 44 1
5 45 1
5 48 1
5 50 1
5 52 1
5 53 1
5 57 1
6 12 1
6 13 1
6 18 1
6 19 1
6 21 1
6 22 1
6 23 1
6 25 1
6 26 1
6 27 1
6 30 1
6 31 1
6 35 1
6 40 1
6 41 1
6 45 1
6 51 1
6 52 1
6 53 1
6 56 1
6 58 1
7 8 1
7 10 1
7 11 1
7 12 1
7 14 1
7 17 1
7 20 1
7 22 1
7 23 1
7 27 1
7 31 1
7 33 1
7 34 1
7 40 1
7 43 1
7 47 1
7 48 1
7 49 1
7 50 1
7 51 1
7 53 1
7 54 1
7 56 1
7 58 1
7 59 1
8 9 1
8 11 1
8 13 1
8 14 1
8 16 1
8 17 1
8 18 1
8 25 1
8 26 1
8 27 1
8 30 1
8 31 1
8 34 1
8 38 1
8 39 1
8 41 1
8 42 1
8 43 1
8 44 1
8 45 1
8 50 1
8 52 1
8 53 1
8 54 1
8 55 1
8 58 1
9 10 1
9 15 1
9 16 1
9 17 1
9 18 1
9 21 1
9 22 1
9 23 1
9 24 1
9 26 1
9 27 1
9 28 1
9 29 1
9 30 1
9 32 1
9 34 1
9 39 1
9 41 1
9 44 1
9 47 1
9 48 1
9 51 1
9 55 1
9 56 1
9 57 1
9 58 1
10 13 1
10 16 1
10 17 1
10 18 1
10 19 1
10 22 1
10 23 1
10 24 1
10 26 1
10 27 1
10 28 1
10 29 1
10 31 1
10 32 1
10 33 1
10 34 1
10 37 1
10 38 1
10 40 1
10 41 1
10 42 1
10 46 1
10 50 1
10 51 1
10 52 1
10 59 1
11 12 1
11 13 1
11 20 1
11 21 1
11 22 1
11 25 1
11 27 1
11 28 1
11 30 1
11 33 1
11 35 1
11 37 1
11 39 1
11 43 1
11 46 1
11 48 1
11 49 1
11 50 1
11 53 1
11 57 1
11 58 1
12 14 1
12 16 1
12 20 1
12 22 1
12 23 1
12 25 1
12 27 1
12 30 1
12 32 1
12 33 1
12 35 1
12 37 1
12 38 1
12 40 1
12 43 1
12 45 1
12 46 1
12 47 1
12 49 1
12 50 1
12 51 1
12 52 1
12 53 1
12 54 1
12 55 1
12 58 1
12 59 1
13 14 1
13 15 1
13 16 1
13 17 1
13 18 1
13 21 1
13 23 1
13 25 1
13 27 1
13 29 1
13 30 1
13 32 1
13 34 1
13 35 1
13 36 1
13 37 1
13 38 1
13 41 1
13 42 1
13 44 1
13 48 1
13 49 1
13 50 1
13 51 1
13 52 1
13 53 1
13 56 1
13 57 1
13 58 1
14 17 1
14 18 1
14 23 1
14 25 1
14 26 1
14 28 1
14 29 1
14 31 1
14 34 1
14 35 1
14 36 1
14 38 1
14 41 1
14 42 1
14 44 1
14 46 1
14 47 1
14 48 1
14 49 1
14 50 1
14 52 1
14 54 1
14 55 1
14 57 1
14 59 1
15 16 1
15 17 1
15 19 1
15 21 1
15 22 1
15 23 1
15 25 1
15 28 1
15 29 1
15 30 1
15 31 1
15 32 1
15 33 1
15 36 1
15 39 1
15 41 1
15 45 1
15 46 1
15 47 1
15 51 1
15 53 1
15 55 1
16 17 1
16 20 1
16 21 1
16 22 1
16 24 1
16 25 1
16 26 1
16 30 1
16 31 1
16 32 1
16 33 1
16 34 1
16 39 1
16 42 1
16 43 1
16 44 1
16 47 1
16 48 1
16 50 1
16 52 1
17 18 1
17 19 1
17 22 1
17 23 1
17 24 1
17 25 1
17 26 1
17 27 1
17 29 1
17 30 1
17 31 1
17 32 1
17 33 1
17 35 1
17 37 1
17 38 1
17 39 1
17 41 1
17 43 1
17 44 1
17 47 1
17 48 1
17 52 1
17 58 1
17 59 1
18 19 1
18 22 1
18 23 1
18 24 1
18 26 1
18 28 1
18 30 1
18 31 1
18 32 1
18 33 1
18 34 1
18 35 1
18 36 1
18 37 1
18 38 1
18 41 1
18 42 1
18 44 1
18 45 1
18 46 1
18 47 1
18 50 1
18 53 1
18 54 1
18 55 1
18 56 1
18 58 1
18 59 1
19 20 1
19 22 1
19 23 1
19 24 1
19 28 1
19 29 1
19 30 1
19 33 1
19 34 1
19 35 1
19 38 1
19 42 1
19 44 1
19 45 1
19 46 1
19 47 1
19 50 1
19 52 1
19 53 1
19 55 1
19 56 1
19 57 1
20 21 1
20 23 1
20 24 1
20 25 1
20 26 1
20 27 1
20 29 1
20 30 1
20 31 1
20 32 1
20 33 1
20 35 1
20 39 1
20 40 1
20 43 1
20 45 1
20 47 1
20 48 1
20 49 1
20 50 1
20 51 1
20 54 1
20 56 1
20 58 1
20 59 1
21 22 1
21 26 1
21 28 1
21 29 1
21 34 1
21 38 1
21 39 1
21 41 1
21 44 1
21 46 1
21 47 1
21 48 1
21 52 1
21 54 1
21 56 1
21 58 1
22 27 1
22 31 1
22 32 1
22 35 1
22 37 1
22 38 1
22 41 1
22 42 1
22 43 1
22 44 1
22 46 1
22 49 1
22 51 1
22 56 1
22 57 1
22 58 1
23 24 1
23 25 1
23 26 1
23 28 1
23 36 1
23 37 1
23 40 1
23 43 1
23 46 1
23 47 1
23 48 1
23 53 1
23 54 1
23 57 1
24 25 1
24 28 1
24 30 1
24 31 1
24 33 1
24 35 1
24 36 1
24 38 1
24 40 1
24 42 1
24 43 1
24 44 1
24 48 1
24 50 1
24 51 1
24 52 1
25 27 1
25 30 1
25 31 1
25 32 1
25 33 1
25 35 1
25 36 1
25 39 1
25 45 1
25 46 1
25 49 1
25 50 1
25 51 1
25 54 1
25 56 1
25 57 1
25 59 1
26 27 1
26 28 1
26 30 1
26 32 1
26 34 1
26 35 1
26 37 1
26 39 1
26 40 1
26 41 1
26 46 1
26 47 1
26 48 1
26 49 1
26 51 1
26 52 1
26 53 1
26 54 1
26 56 1
26 57 1
26 58 1
27 29 1
27 30 1
27 32 1
27 33 1
27 35 1
27 36 1
27 39 1
27 41 1
27 42 1
27 44 1
27 46 1
27 47 1
27 48 1
27 50 1
27 52 1
27 54 1
27 55 1
27 56 1
27 58 1
28 29 1
28 31 1
28 36 1
28 37 1
28 38 1
28 39 1
28 42 1
28 48 1
28 50 1
28 54 1
28 57 1
29 30 1
29 31 1
29 32 1
29 37 1
29 38 1
29 39 1
29 41 1
29 44 1
29 45 1
29 46 1
29 47 1
29 50 1
29 51 1
29 55 1
29 57 1
29 59 1
30 33 1
30 34 1
30 37 1
30 38 1
30 39 1
30 40 1
30 44 1
30 46 1
30 47 1
30 49 1
30 50 1
30 52 1
30 54 1
30 56 1
30 57 1
30 59 1
31 33 1
31 34 1
31 36 1
31 37 1
31 41 1
31 43 1
31 45 1
31 46 1
31 47 1
31 48 1
31 49 1
31 50 1
31 51 1
31 52 1
31 53 1
31 56 1
31 57 1
31 58 1
32 35 1
32 36 1
32 37 1
32 40 1
32 44 1
32 45 1
32 47 1
32 48 1
32 53 1
32 54 1
32 55 1
32 56 1
32 58 1
32 59 1
33 35 1
33 36 1
33 37 1
33 39 1
33 40 1
33 41 1
33 42 1
33 43 1
33 46 1
33 47 1
33 48 1
33 49 1
33 50 1
33 54 1
33 58 1
34 35 1
34 36 1
34 37 1
34 38 1
34 39 1
34 42 1
34 46 1
34 47 1
34 50 1
34 54 1
34 58 1
34 59 1
35 40 1
35 42 1
35 48 1
35 49 1
35 53 1
35 55 1
35 56 1
35 58 1
35 59 1
36 37 1
36 39 1
36 42 1
36 43 1
36 44 1
36 47 1
36 49 1
36 53 1
36 55 1
36 59 1
37 38 1
37 39 1
37 40 1
37 41 1
37 42 1
37 43 1
37 50 1
37 51 1
37 52 1
37 53 1
37 54 1
37 55 1
37 56 1
37 59 1
38 39 1
38 43 1
38 44 1
38 47 1
38 49 1
38 51 1
38 52 1
38 54 1
38 58 1
39 40 1
39 41 1
39 44 1
39 46 1
39 52 1
39 54 1
39 55 1
39 56 1
39 58 1
39 59 1
40 42 1
40 44 1
40 45 1
40 48 1
40 49 1
40 51 1
40 53 1
40 57 1
40 59 1
41 42 1
41 43 1
41 48 1
41 49 1
41 51 1
41 54 1
41 55 1
41 56 1
41 58 1
42 45 1
42 46 1
42 47 1
42 48 1
42 49 1
42 50 1
42 52 1
42 54 1
42 55 1
42 58 1
43 44 1
43 45 1
43 46 1
43 48 1
43 50 1
43 52 1
43 53 1
43 54 1
43 55 1
43 56 1
43 59 1
44 45 1
44 47 1
44 48 1
44 49 1
44 58 1
45 49 1
45 52 1
45 56 1
45 57 1
46 47 1
46 49 1
46 51 1
46 53 1
46 57 1
47 49 1
47 51 1
47 57 1
47 58 1
47 59 1
48 51 1
48 52 1
48 53 1
48 57 1
48 58 1
49 51 1
49 52 1
49 57 1
49 59 1
50 52 1
50 53 1
50 55 1
50 57 1
50 58 1
50 59 1
51 53 1
51 54 1
51 55 1
51 56 1
51 58 1
52 54 1
52 56 1
52 59 1
53 57 1
53 58 1
54 57 1
54 59 1
55 56 1
57 58 1
57 59 1
9 19 23 38 49